(set-logic QF_SLIA)
(declare-const result String)
(declare-const attack String)
(declare-const prefix RegLan)
(declare-const infix RegLan)
(declare-const postfix RegLan)
(declare-const postfixs String)

(assert (str.in_re attack (re.++ prefix ((_ re.loop 10000 10000) infix) postfix)))
(assert (= prefix 
     (re.++  (str.to_re "\u{43}") (re.++  (str.to_re "\u{50}") (re.++ (re.+  (str.to_re "\u{55}") ) (re.++  (str.to_re "\u{4f}") (re.++ (re.+  (str.to_re "\u{53}") ) (re.++  (str.to_re "\u{31}") (re.++  (str.to_re "\u{5f}") (re.++  (str.to_re "\u{31}")  (str.to_re "\u{5f}")))))))))
))
(assert (= infix 
         (re.++  (re.++ (re.+ (re.range "\u{30}" "\u{39}") ) (re.*  (re.union  (str.to_re "\u{0a}")  (str.to_re "\u{0d}")) )) (re.++  (str.to_re "\u{26}") (re.++  (re.++ (re.+ (re.range "\u{30}" "\u{39}") ) (re.++  (re.*  (re.union  (str.to_re "\u{0a}")  (str.to_re "\u{0d}")) ))) (re.++  (str.to_re "\u{26}") (re.+ re.allchar )))))
))
(assert (= postfix 
         (str.to_re "\u{40}")
))
(assert (str.in_re postfixs postfix))
(assert (>= (str.len postfixs) 1))
(assert (= result (str.++ attack postfixs)))
(check-sat)
(get-model)